
930.0
630.0
900.0
900.0
990.0
630.0
840.0
1020.0
630.0
900.0
900.0
630.0
900.0
630.0
900.0
630.0
1200.0
630.0
630.0
630.0
660.0
630.0
630.0
630.0
690.0
630.0
630.0
810.0
630.0
900.0
630.0
630.0
900.0
960.0
630.0
630.0
630.0
630.0
630.0
870.0
630.0
990.0
750.0
630.0
630.0
960.0
930.0
630.0
900.0
630.0